data/processed_heuristic-threshold/instances/1/9/ds_1012_courier_87/pairwise.tsp
NAME: ds_1012_courier_87
TYPE: TSP
COMMENT: nil
DIMENSION: 10
EDGE_WEIGHT_TYPE: EXPLICIT
EDGE_WEIGHT_FORMAT: FULL_MATRIX
EDGE_WEIGHT_SECTION
9999 1338 1354 554 1046 1334 1168 1523 1012 1037 
1338 9999 205 1430 801 702 423 1333 1183 972 
1354 205 9999 1364 653 507 272 1143 1043 825 
554 1430 1364 9999 822 1137 1110 1100 596 725 
1046 801 653 822 9999 315 383 624 390 172 
1334 702 507 1137 315 9999 321 637 649 438 
1168 423 272 1110 383 321 9999 923 772 556 
1523 1333 1143 1100 624 637 923 9999 516 524 
1012 1183 1043 596 390 649 772 516 9999 221 
1037 972 825 725 172 438 556 524 221 9999 
