data/processed_heuristic-threshold/instances/1/9/ds_1012_courier_87/pairwise.sol
10
0 3 8 7 9 4 5 6 2 1 
